Geographic Exponential Decay
20 228 90 161 315 180 288 167 171 162 141 211 314 36 280 230 150 7 195 128 252
p edge 320 320
e 0 239 1.0
e 1 43 1.0
e 1 0 5.0
e 2 120 2.0
e 2 306 7.0
e 2 1 20.0
e 3 147 2.0
e 3 2 4.0
e 4 77 4.0
e 4 3 1.0
e 5 150 76.0
e 5 4 1.0
e 6 107 4.0
e 6 5 1.0
e 7 175 76.0
e 7 71 13.0
e 7 162 61.0
e 7 89 7.0
e 7 283 33.0
e 7 6 97.0
e 8 60 3.0
e 8 7 88.0
e 9 266 1.0
e 9 8 3.0
e 10 21 2.0
e 10 9 2.0
e 11 139 1.0
e 11 10 5.0
e 12 142 3.0
e 12 11 3.0
e 13 208 3.0
e 13 12 1.0
e 14 63 2.0
e 14 13 1.0
e 15 141 31.0
e 15 157 16.0
e 15 14 17.0
e 16 100 11.0
e 16 15 5.0
e 17 18 3.0
e 17 16 4.0
e 19 176 17.0
e 19 252 99.0
e 19 17 12.0
e 20 259 1.0
e 20 19 24.0
e 22 255 1.0
e 22 20 3.0
e 23 220 11.0
e 23 243 24.0
e 23 22 1.0
e 24 103 22.0
e 24 23 17.0
e 25 273 34.0
e 26 134 2.0
e 26 24 1.0
e 27 115 1.0
e 27 26 1.0
e 28 29 11.0
e 28 27 1.0
e 30 61 1.0
e 30 28 1.0
e 31 64 1.0
e 31 30 6.0
e 32 98 1.0
e 32 31 2.0
e 33 253 1.0
e 33 32 1.0
e 34 186 1.0
e 34 33 3.0
e 35 177 7.0
e 35 34 9.0
e 36 230 19.0
e 36 309 12.0
e 36 178 48.0
e 36 37 52.0
e 36 267 14.0
e 36 35 73.0
e 38 39 24.0
e 38 36 90.0
e 39 133 1.0
e 40 99 2.0
e 40 38 1.0
e 41 116 1.0
e 41 40 2.0
e 42 149 1.0
e 42 41 1.0
e 44 118 10.0
e 44 140 14.0
e 44 42 6.0
e 45 96 1.0
e 45 44 1.0
e 46 47 1.0
e 46 45 1.0
e 48 141 3.0
e 49 50 4.0
e 49 46 4.0
e 51 265 1.0
e 51 49 7.0
e 52 126 4.0
e 52 51 8.0
e 53 95 49.0
e 53 52 3.0
e 54 122 5.0
e 54 53 1.0
e 55 121 3.0
e 55 54 4.0
e 56 197 2.0
e 56 55 1.0
e 57 117 1.0
e 57 56 1.0
e 58 228 20.0
e 59 303 12.0
e 59 62 17.0
e 59 57 19.0
e 62 254 4.0
e 65 66 1.0
e 65 59 6.0
e 67 270 1.0
e 67 65 3.0
e 68 75 2.0
e 68 67 2.0
e 69 193 1.0
e 69 68 2.0
e 70 210 1.0
e 70 69 2.0
e 72 130 1.0
e 72 70 1.0
e 73 179 5.0
e 73 72 5.0
e 74 76 2.0
e 74 73 4.0
e 78 79 8.0
e 78 74 2.0
e 80 205 23.0
e 80 275 3.0
e 80 78 2.0
e 81 227 3.0
e 81 80 20.0
e 82 288 46.0
e 82 81 2.0
e 83 141 22.0
e 84 304 1.0
e 84 82 2.0
e 85 315 67.0
e 85 84 1.0
e 86 224 1.0
e 86 85 3.0
e 87 181 5.0
e 87 86 5.0
e 88 312 2.0
e 88 87 5.0
e 90 256 47.0
e 90 123 32.0
e 90 91 56.0
e 90 305 82.0
e 90 240 41.0
e 90 88 23.0
e 92 93 4.0
e 92 191 10.0
e 92 90 24.0
e 94 95 11.0
e 95 260 34.0
e 97 180 91.0
e 97 92 17.0
e 101 174 4.0
e 101 97 2.0
e 102 119 2.0
e 102 101 5.0
e 103 164 44.0
e 103 187 16.0
e 104 298 1.0
e 104 102 6.0
e 105 106 2.0
e 105 104 2.0
e 108 148 5.0
e 108 105 1.0
e 109 128 62.0
e 109 108 3.0
e 110 188 7.0
e 110 109 1.0
e 111 112 5.0
e 111 110 3.0
e 113 223 1.0
e 113 111 1.0
e 114 268 5.0
e 114 113 1.0
e 124 235 3.0
e 124 114 6.0
e 125 247 3.0
e 125 124 1.0
e 127 311 2.0
e 127 125 1.0
e 128 217 32.0
e 128 232 34.0
e 128 249 17.0
e 128 129 89.0
e 131 225 1.0
e 131 127 2.0
e 132 135 4.0
e 132 131 11.0
e 136 137 2.0
e 136 132 10.0
e 138 313 4.0
e 138 136 6.0
e 141 261 41.0
e 141 143 42.0
e 144 294 9.0
e 144 138 4.0
e 145 146 2.0
e 145 144 1.0
e 150 151 13.0
e 150 152 69.0
e 150 153 31.0
e 150 154 43.0
e 155 226 12.0
e 155 145 2.0
e 156 222 1.0
e 156 155 4.0
e 158 171 44.0
e 158 156 2.0
e 159 160 1.0
e 159 158 4.0
e 161 162 71.0
e 161 163 91.0
e 161 165 95.0
e 161 279 91.0
e 161 228 83.0
e 162 166 25.0
e 162 167 80.0
e 162 168 38.0
e 167 307 11.0
e 167 169 80.0
e 167 257 81.0
e 167 170 19.0
e 171 258 28.0
e 171 282 55.0
e 171 196 92.0
e 171 172 14.0
e 173 315 10.0
e 180 182 63.0
e 180 308 86.0
e 180 251 43.0
e 180 219 66.0
e 183 264 1.0
e 183 159 1.0
e 184 201 2.0
e 184 183 4.0
e 185 271 1.0
e 185 184 3.0
e 189 190 5.0
e 189 185 1.0
e 192 194 5.0
e 192 189 4.0
e 195 286 29.0
e 195 287 81.0
e 195 262 38.0
e 195 310 87.0
e 195 297 32.0
e 195 192 55.0
e 198 199 2.0
e 198 195 39.0
e 200 314 52.0
e 202 203 1.0
e 202 198 2.0
e 204 206 4.0
e 204 202 2.0
e 207 209 10.0
e 207 204 9.0
e 211 212 31.0
e 211 213 52.0
e 211 214 21.0
e 211 318 19.0
e 211 215 38.0
e 211 207 15.0
e 216 218 1.0
e 216 211 52.0
e 221 228 1.0
e 228 293 54.0
e 228 229 6.0
e 230 231 83.0
e 230 233 24.0
e 230 234 50.0
e 230 236 5.0
e 237 238 3.0
e 237 216 1.0
e 241 242 1.0
e 241 237 1.0
e 244 269 1.0
e 244 241 2.0
e 245 246 3.0
e 245 244 1.0
e 248 316 1.0
e 248 245 4.0
e 249 285 16.0
e 249 250 44.0
e 252 263 55.0
e 252 272 64.0
e 252 273 71.0
e 252 274 7.0
e 273 276 8.0
e 277 278 1.0
e 277 248 1.0
e 280 281 11.0
e 280 284 49.0
e 280 288 3.0
e 280 289 48.0
e 280 290 33.0
e 281 288 36.0
e 281 291 45.0
e 288 292 40.0
e 288 295 38.0
e 295 296 17.0
e 299 300 4.0
e 299 277 5.0
e 301 302 2.0
e 301 299 1.0
e 314 315 65.0
e 314 317 45.0
e 314 319 54.0
